500
120 120
1 84 654
2 84 353
3 84 193
4 84 747
5 84 26
6 84 261
7 84 689
8 84 313
9 84 909
10 84 732
11 84 332
12 84 685
13 83 875
14 83 237
15 83 90
16 83 293
17 83 38
18 83 649
19 82 788
20 82 320
21 82 351
22 82 54
23 82 802
24 82 646
25 81 779
26 81 339
27 81 367
28 81 163
29 81 820
30 81 197
31 80 144
32 80 202
33 80 117
34 80 591
35 80 904
36 80 940
37 80 682
38 80 774
39 79 94
40 79 524
41 79 836
42 79 818
43 79 536
44 78 995
45 78 412
46 78 179
47 78 124
48 78 195
49 78 736
50 78 496
51 78 95
52 78 478
53 77 914
54 77 568
55 77 238
56 77 679
57 77 417
58 77 562
59 77 726
60 77 453
61 77 218
62 77 947
63 77 312
64 76 213
65 76 893
66 76 212
67 76 510
68 76 975
69 76 670
70 75 420
71 75 177
72 75 896
73 75 290
74 75 610
75 75 273
76 75 506
77 74 396
78 74 799
79 74 952
80 74 924
81 73 336
82 73 777
83 72 145
84 72 903
85 72 703
86 72 853
87 72 153
88 72 181
89 72 265
90 71 69
91 71 956
92 71 389
93 70 755
94 70 309
95 70 626
96 70 290
97 70 537
98 70 489
99 70 327
100 69 501
101 69 284
102 69 541
103 69 721
104 69 109
105 69 537
106 68 648
107 68 374
108 68 119
109 67 342
110 67 68
111 67 599
112 67 334
113 67 769
114 67 423
115 67 46
116 67 675
117 66 73
118 66 116
119 66 396
120 66 898
121 66 816
122 66 121
123 65 941
124 65 908
125 65 988
126 65 808
127 64 326
128 64 51
129 64 670
130 64 7
131 64 238
132 64 21
133 64 457
134 64 745
135 64 99
136 64 753
137 63 412
138 63 107
139 63 587
140 63 862
141 62 496
142 62 563
143 62 469
144 62 759
145 62 338
146 62 461
147 62 317
148 62 440
149 62 881
150 62 873
151 62 145
152 61 386
153 61 281
154 61 787
155 61 93
156 61 917
157 61 558
158 61 652
159 61 824
160 61 179
161 60 655
162 60 958
163 60 383
164 60 660
165 60 50
166 60 710
167 60 322
168 60 771
169 60 229
170 60 282
171 59 738
172 59 482
173 59 830
174 59 188
175 59 90
176 59 731
177 59 771
178 58 333
179 58 319
180 58 266
181 58 184
182 58 501
183 58 753
184 58 970
185 57 305
186 57 32
187 57 514
188 57 749
189 57 575
190 57 289
191 56 71
192 55 404
193 55 426
194 55 315
195 55 897
196 55 436
197 55 675
198 55 39
199 55 995
200 55 406
201 54 560
202 54 868
203 54 559
204 54 93
205 54 792
206 54 569
207 54 309
208 54 94
209 53 16
210 53 80
211 53 982
212 53 236
213 52 234
214 52 846
215 52 688
216 52 591
217 52 847
218 52 115
219 51 36
220 51 725
221 51 344
222 51 555
223 51 426
224 51 245
225 51 139
226 51 259
227 51 413
228 50 17
229 50 1000
230 50 398
231 49 11
232 49 180
233 49 29
234 49 367
235 49 580
236 49 765
237 49 535
238 49 493
239 49 182
240 48 786
241 48 528
242 48 471
243 48 815
244 48 520
245 48 559
246 48 630
247 48 202
248 48 506
249 48 398
250 48 227
251 48 648
252 47 359
253 47 340
254 47 712
255 47 499
256 47 315
257 47 573
258 47 497
259 47 743
260 46 615
261 46 212
262 46 665
263 46 705
264 46 251
265 46 709
266 46 863
267 45 932
268 45 561
269 45 420
270 45 811
271 45 750
272 45 68
273 45 203
274 44 527
275 44 945
276 44 683
277 44 547
278 44 516
279 44 793
280 43 788
281 43 909
282 43 553
283 43 408
284 43 564
285 43 629
286 43 253
287 43 682
288 43 883
289 42 395
290 42 508
291 42 393
292 42 516
293 42 227
294 42 37
295 42 595
296 42 363
297 41 442
298 41 887
299 41 495
300 41 498
301 41 365
302 40 888
303 40 900
304 40 334
305 39 395
306 39 199
307 39 119
308 39 271
309 39 249
310 39 928
311 39 81
312 39 637
313 39 730
314 39 547
315 38 27
316 38 628
317 38 95
318 38 743
319 38 454
320 38 187
321 38 36
322 37 855
323 37 20
324 37 27
325 37 519
326 37 801
327 36 197
328 36 741
329 36 335
330 36 629
331 36 101
332 36 807
333 36 904
334 36 615
335 35 667
336 35 857
337 35 350
338 35 608
339 34 389
340 34 375
341 34 667
342 33 329
343 33 392
344 33 502
345 33 621
346 33 91
347 33 308
348 33 222
349 32 859
350 32 523
351 32 787
352 32 819
353 32 392
354 32 492
355 32 779
356 32 385
357 32 166
358 31 113
359 31 378
360 31 291
361 31 426
362 31 321
363 31 511
364 31 217
365 30 375
366 30 287
367 30 110
368 30 975
369 30 143
370 30 714
371 30 967
372 30 933
373 30 113
374 30 250
375 30 77
376 29 853
377 29 709
378 29 667
379 29 209
380 29 631
381 29 961
382 29 629
383 29 108
384 28 394
385 28 239
386 28 614
387 28 66
388 28 324
389 28 375
390 28 374
391 28 257
392 27 733
393 27 202
394 27 166
395 27 819
396 27 898
397 27 895
398 27 901
399 27 830
400 27 275
401 27 776
402 27 595
403 27 895
404 26 968
405 26 212
406 26 145
407 26 41
408 26 482
409 26 213
410 26 114
411 26 771
412 25 822
413 25 296
414 25 778
415 25 316
416 25 910
417 25 268
418 25 680
419 25 138
420 25 16
421 24 578
422 24 168
423 24 253
424 24 178
425 24 926
426 24 686
427 24 78
428 23 476
429 23 44
430 23 279
431 23 918
432 22 725
433 22 174
434 22 541
435 22 284
436 22 865
437 21 201
438 21 387
439 21 102
440 21 149
441 21 558
442 21 939
443 20 625
444 20 825
445 20 819
446 20 788
447 20 652
448 19 925
449 19 151
450 19 985
451 19 304
452 19 922
453 19 67
454 19 439
455 18 129
456 18 211
457 18 514
458 18 497
459 18 641
460 17 597
461 17 45
462 17 556
463 17 111
464 17 359
465 16 153
466 16 589
467 16 487
468 16 958
469 16 743
470 16 585
471 16 941
472 16 487
473 16 474
474 15 792
475 15 932
476 15 680
477 15 414
478 15 714
479 15 253
480 15 124
481 15 155
482 14 106
483 14 816
484 14 419
485 14 310
486 14 739
487 14 263
488 13 283
489 13 473
490 13 363
491 13 249
492 13 358
493 13 670
494 13 398
495 13 766
496 12 121
497 12 459
498 12 837
499 12 205
500 12 692
